(declare-sort Loc 0)
(declare-const f328_0_createList_Load Loc)
(declare-const f724_0_createList_Load Loc)
(declare-const f340_0_createList_Return Loc)
(declare-const f783_0_toArray_FieldAccess Loc)
(declare-const f1_0_main_Load Loc)
(declare-const f1044_0_toArray_EQ Loc)
(declare-const f1106_0_createList_LE Loc)
(declare-const __init Loc)
(assert (distinct f328_0_createList_Load f724_0_createList_Load f340_0_createList_Return f783_0_toArray_FieldAccess f1_0_main_Load f1044_0_toArray_EQ f1106_0_createList_LE __init ))

(define-fun cfg_init ( (pc Loc) (src Loc) (rel Bool) ) Bool
  (and (= pc src) rel))

(define-fun cfg_trans2 ( (pc Loc) (src Loc)
                         (pc1 Loc) (dst Loc)
                         (rel Bool) ) Bool
  (and (= pc src) (= pc1 dst) rel))

(define-fun cfg_trans3 ( (pc Loc) (exit Loc)
                         (pc1 Loc) (call Loc)
                         (pc2 Loc) (return Loc)
                         (rel Bool) ) Bool
  (and (= pc exit) (= pc1 call) (= pc2 return) rel))

(define-fun init_main ( (pc Loc) (arg1 Int) (arg2 Int) (arg3 Int) (arg4 Int) (arg5 Int) (arg6 Int) (arg7 Int) (arg8 Int) (arg9 Int) (arg10 Int) (arg11 Int) (arg12 Int) (arg13 Int) (arg14 Int) (arg15 Int) (arg16 Int) (arg17 Int) (arg18 Int) (arg19 Int) (arg20 Int) (arg21 Int) (arg22 Int) (arg23 Int) ) Bool
  (cfg_init pc __init true))

(define-fun next_main (
                 (pc Loc) (arg1 Int) (arg2 Int) (arg3 Int) (arg4 Int) (arg5 Int) (arg6 Int) (arg7 Int) (arg8 Int) (arg9 Int) (arg10 Int) (arg11 Int) (arg12 Int) (arg13 Int) (arg14 Int) (arg15 Int) (arg16 Int) (arg17 Int) (arg18 Int) (arg19 Int) (arg20 Int) (arg21 Int) (arg22 Int) (arg23 Int)
                 (pc1 Loc) (arg1P Int) (arg2P Int) (arg3P Int) (arg4P Int) (arg5P Int) (arg6P Int) (arg7P Int) (arg8P Int) (arg9P Int) (arg10P Int) (arg11P Int) (arg12P Int) (arg13P Int) (arg14P Int) (arg15P Int) (arg16P Int) (arg17P Int) (arg18P Int) (arg19P Int) (arg20P Int) (arg21P Int) (arg22P Int) (arg23P Int)
             ) Bool
  (or
    (cfg_trans2 pc f328_0_createList_Load pc1 f724_0_createList_Load (and (and (and (and (and (and (and (and (and (and (and (and (and (and (and (and (> arg2 9) (> arg2P 9)) (<= (+ arg6 5) arg2)) (<= (+ arg7 3) arg2)) (= arg1 arg1P)) (= 0 arg3P)) (= 0 arg4P)) (= arg4 arg5P)) (= 0 arg7P)) (= 0 arg8P)) (= 0 arg9P)) (= arg3 arg13P)) (= arg3 arg14P)) (= arg4 arg15P)) (= arg5 arg17P)) (= arg6 arg18P)) (= arg7 arg21P)))
    (cfg_trans2 pc f340_0_createList_Return pc1 f783_0_toArray_FieldAccess (and (and (and (and (and (and (and (and (and (and (and (and (and (< arg3P arg2) (> arg2 (- 1))) (> arg3 (- 1))) (< arg4P arg3)) (<= (+ arg2P 6) arg1)) (> arg1 6)) (> arg1P 7)) (> arg2P 0)) (<= (+ arg4 5) arg1)) (<= (+ arg5 7) arg1)) (<= (+ arg7 3) arg1)) (<= (+ arg6 7) arg1)) (= arg7 arg6P)) (= arg4 arg7P)))
    (cfg_trans2 pc f1_0_main_Load pc1 f783_0_toArray_FieldAccess (exists ((x36 Int) (x37 Int) (x38 Int)) (and (and (and (and (and (and (and (and (and (> x36 (- 1)) (> arg2 0)) (> x37 (- 1))) (> x37 arg3P)) (> x38 (- 1))) (> x38 arg4P)) (<= arg2P arg1)) (> arg1 0)) (> arg1P 7)) (> arg2P 0))))
    (cfg_trans2 pc f783_0_toArray_FieldAccess pc1 f1044_0_toArray_EQ (and (and (and (and (and (and (and (and (and (and (and (and (and (and (and (and (and (and (<= arg1P arg1) (> arg3 0)) (<= (+ arg2P 7) arg1)) (<= arg2P arg2)) (> arg1 7)) (> arg2 0)) (> arg1P 7)) (> arg2P 0)) (<= (+ arg7 5) arg1)) (<= (+ arg5 8) arg1)) (<= (+ arg6 3) arg1)) (= 0 arg3P)) (= arg3 arg4P)) (= 0 arg5P)) (= arg3 arg6P)) (= 0 arg7P)) (= 0 arg8P)) (= arg6 arg9P)) (= arg7 arg10P)))
    (cfg_trans2 pc f783_0_toArray_FieldAccess pc1 f1044_0_toArray_EQ (and (and (and (and (and (and (and (and (and (and (and (and (and (and (and (and (and (and (and (> arg4 0) (> arg3 0)) (<= arg1P arg1)) (<= (+ arg2P 7) arg1)) (<= arg2P arg2)) (> arg1 7)) (> arg2 0)) (> arg1P 7)) (> arg2P 0)) (<= (+ arg7 5) arg1)) (<= (+ arg5 8) arg1)) (<= (+ arg6 3) arg1)) (= 0 arg3P)) (= arg3 arg4P)) (= 0 arg5P)) (= arg3 arg6P)) (= 0 arg7P)) (= 0 arg8P)) (= arg6 arg9P)) (= arg7 arg10P)))
    (cfg_trans2 pc f1044_0_toArray_EQ pc1 f1044_0_toArray_EQ (and (and (and (and (and (and (and (and (and (and (and (and (and (and (and (and (and (and (and (and (and (and (> arg8 0) (> arg7 0)) (> arg6 0)) (> arg8P arg8)) (< arg6P arg6)) (> arg5 0)) (< arg8 arg4)) (< arg7P arg7)) (> arg10 arg3)) (< arg8 arg5)) (<= (+ arg2P 7) arg1)) (<= arg2P arg2)) (> arg1 7)) (> arg2 0)) (> arg1P 7)) (> arg2P 0)) (<= (+ arg10 5) arg1)) (<= (+ arg9 3) arg1)) (= (+ arg3 1) arg3P)) (= arg4 arg4P)) (= arg5 arg5P)) (= arg9 arg9P)) (= arg10 arg10P)))
    (cfg_trans2 pc f1044_0_toArray_EQ pc1 f1044_0_toArray_EQ (and (and (and (and (and (and (and (and (and (and (and (and (and (and (and (and (and (and (< arg6P arg4) (> arg4 0)) (< arg7P arg5)) (> arg10 arg3)) (> arg5 (- 1))) (<= (+ arg2P 9) arg1)) (<= arg2P arg2)) (> arg1 9)) (> arg2 0)) (> arg1P 9)) (> arg2P 0)) (<= (+ arg10 5) arg1)) (<= (+ arg9 3) arg1)) (= arg4 arg6)) (= (+ arg3 1) arg3P)) (= 0 arg5P)) (= 1 arg8P)) (= arg9 arg9P)) (= arg10 arg10P)))
    (cfg_trans2 pc f1_0_main_Load pc1 f328_0_createList_Load (and (and (and (and (and (and (and (> arg1P (- 1)) (> arg2 0)) (<= (- arg2P 7) arg1)) (> arg1 0)) (> arg2P 7)) (= 1 arg5P)) (= 0 arg6P)) (= 0 arg7P)))
    (cfg_trans2 pc f724_0_createList_Load pc1 f1106_0_createList_LE (and (and (and (and (and (and (and (and (and (and (and (and (and (and (and (and (and (and (and (and (and (and (> arg2 11) (> arg1P 11)) (>= arg2 (+ arg18 5))) (>= arg2 (+ arg19 9))) (>= arg2 (+ arg21 3))) (>= arg2 (+ arg20 9))) (= arg1 arg2P)) (= arg4 arg3P)) (= arg5 arg4P)) (= arg11 arg5P)) (= arg10 arg6P)) (= arg3 arg7P)) (= arg6 arg8P)) (= arg7 arg9P)) (= arg8 arg10P)) (= arg9 arg11P)) (= arg12 arg12P)) (= arg13 arg13P)) (= arg14 arg14P)) (= arg15 arg15P)) (= arg17 arg16P)) (= arg18 arg17P)) (= arg21 arg23P)))
    (cfg_trans2 pc f1106_0_createList_LE pc1 f1106_0_createList_LE (exists ((x119 Int) (x160 Int)) (and (and (and (and (and (and (and (and (and (and (and (and (and (and (and (and (and (and (and (and (and (and (and (and (and (and (and (and (and (and (and (and (and (and (> arg2 0) (> x119 (- 1))) (> arg16 0)) (< arg16 x119)) (> arg4 0)) (> arg3 0)) (> arg7 0)) (> arg6 0)) (> arg5 0)) (> arg14 0)) (> x160 (- 1))) (> arg9 0)) (> arg12 0)) (> arg10 0)) (> arg15 0)) (> arg13 0)) (> arg11 0)) (> arg8 0)) (> arg23 (- 1))) (> arg17 (- 1))) (> arg1 11)) (> arg1P 11)) (<= (+ arg17 5) arg1)) (<= (+ arg18 11) arg1)) (<= (+ arg19 11) arg1)) (<= (+ arg20 9) arg1)) (<= (+ arg21 9) arg1)) (<= (+ arg23 3) arg1)) (<= (+ arg22 9) arg1)) (= (- arg2 1) arg2P)) (= arg3 arg3P)) (= arg4 arg4P)) (= (+ arg16 1) arg16P)) (= (+ arg17 1) arg17P)) (= (+ arg23 1) arg23P))))
    (cfg_trans2 pc __init pc1 f1_0_main_Load true)
  )
)
